45
100
69	2
68	1
67	2
66	4
65	3
64	1
63	2
62	4
61	2
60	3
59	1
58	4
57	1
56	1
55	3
54	2
53	2
52	2
51	1
50	3
49	1
48	1
47	1
45	1
44	2
42	3
40	2
39	1
38	2
37	3
36	2
35	3
34	1
33	3
32	3
31	1
30	3
29	4
27	1
26	3
25	1
23	5
22	4
21	1
20	4
